c this file is generated by buildmiter
c generated on Wed Apr  6 10:56:59 2016
p cnf 1030 2665
1 86 0
-1 -86 0
2 87 0
-2 -87 0
4 88 0
-4 -88 0
6 89 0
-6 -89 0
8 90 0
-8 -90 0
10 91 0
-10 -91 0
12 92 0
-12 -92 0
14 93 0
-14 -93 0
16 94 0
-16 -94 0
18 95 0
-18 -95 0
20 96 0
-20 -96 0
22 97 0
-22 -97 0
24 98 0
-24 -98 0
26 99 0
-26 -99 0
28 100 0
-28 -100 0
30 101 0
-30 -101 0
32 102 0
-32 -102 0
34 103 0
-34 -103 0
-86 -2 -104 0
86 104 0
2 104 0
3 87 105 0
-3 -105 0
-87 -105 0
5 87 106 0
-5 -106 0
-87 -106 0
-88 -6 -107 0
88 107 0
6 107 0
-10 -90 -499 0
10 90 -499 0
10 -90 499 0
-10 90 499 0
-499 -77 -500 0
499 500 0
77 500 0
-10 -90 501 0
10 -501 0
90 -501 0
77 502 0
-77 -502 0
78 503 0
-78 -503 0
-503 -502 -504 0
503 504 0
502 504 0
504 501 505 0
-504 -505 0
-501 -505 0
90 506 0
-90 -506 0
10 507 0
-10 -507 0
-507 -506 -508 0
507 508 0
506 508 0
-78 -502 -509 0
78 509 0
502 509 0
509 508 510 0
-509 -510 0
-508 -510 0
510 505 511 0
-510 -511 0
-505 -511 0
-511 -500 -108 0
511 108 0
500 108 0
-92 -14 -109 0
92 109 0
14 109 0
-94 -18 -110 0
94 110 0
18 110 0
-22 -96 -369 0
22 96 -369 0
22 -96 369 0
-22 96 369 0
-369 -57 -370 0
369 370 0
57 370 0
-22 -96 371 0
22 -371 0
96 -371 0
57 372 0
-57 -372 0
58 373 0
-58 -373 0
-373 -372 -374 0
373 374 0
372 374 0
374 371 375 0
-374 -375 0
-371 -375 0
96 376 0
-96 -376 0
22 377 0
-22 -377 0
-377 -376 -378 0
377 378 0
376 378 0
-58 -372 -379 0
58 379 0
372 379 0
379 378 380 0
-379 -380 0
-378 -380 0
380 375 381 0
-380 -381 0
-375 -381 0
-381 -370 -111 0
381 111 0
370 111 0
-26 -98 -460 0
26 98 -460 0
26 -98 460 0
-26 98 460 0
-460 -71 -461 0
460 461 0
71 461 0
-26 -98 462 0
26 -462 0
98 -462 0
71 463 0
-71 -463 0
72 464 0
-72 -464 0
-464 -463 -465 0
464 465 0
463 465 0
465 462 466 0
-465 -466 0
-462 -466 0
98 467 0
-98 -467 0
26 468 0
-26 -468 0
-468 -467 -469 0
468 469 0
467 469 0
-72 -463 -470 0
72 470 0
463 470 0
470 469 471 0
-470 -471 0
-469 -471 0
471 466 472 0
-471 -472 0
-466 -472 0
-472 -461 -112 0
472 112 0
461 112 0
-100 -30 -113 0
100 113 0
30 113 0
-102 -34 -114 0
102 114 0
34 114 0
7 89 115 0
-7 -115 0
-89 -115 0
9 89 116 0
-9 -116 0
-89 -116 0
11 91 117 0
-11 -117 0
-91 -117 0
13 91 118 0
-13 -118 0
-91 -118 0
-93 -15 -356 0
93 15 -356 0
93 -15 356 0
-93 15 356 0
-356 -55 -357 0
356 357 0
55 357 0
-93 -15 358 0
93 -358 0
15 -358 0
55 359 0
-55 -359 0
56 360 0
-56 -360 0
-360 -359 -361 0
360 361 0
359 361 0
361 358 362 0
-361 -362 0
-358 -362 0
15 363 0
-15 -363 0
93 364 0
-93 -364 0
-364 -363 -365 0
364 365 0
363 365 0
-56 -359 -366 0
56 366 0
359 366 0
366 365 367 0
-366 -367 0
-365 -367 0
367 362 368 0
-367 -368 0
-362 -368 0
-368 -357 -119 0
368 119 0
357 119 0
17 93 120 0
-17 -120 0
-93 -120 0
-95 -19 -395 0
95 19 -395 0
95 -19 395 0
-95 19 395 0
-395 -61 -396 0
395 396 0
61 396 0
-95 -19 397 0
95 -397 0
19 -397 0
61 398 0
-61 -398 0
62 399 0
-62 -399 0
-399 -398 -400 0
399 400 0
398 400 0
400 397 401 0
-400 -401 0
-397 -401 0
19 402 0
-19 -402 0
95 403 0
-95 -403 0
-403 -402 -404 0
403 404 0
402 404 0
-62 -398 -405 0
62 405 0
398 405 0
405 404 406 0
-405 -406 0
-404 -406 0
406 401 407 0
-406 -407 0
-401 -407 0
-407 -396 -121 0
407 121 0
396 121 0
21 95 122 0
-21 -122 0
-95 -122 0
23 97 123 0
-23 -123 0
-97 -123 0
25 97 124 0
-25 -124 0
-97 -124 0
27 99 125 0
-27 -125 0
-99 -125 0
29 99 126 0
-29 -126 0
-99 -126 0
31 101 127 0
-31 -127 0
-101 -127 0
-101 -33 -382 0
101 33 -382 0
101 -33 382 0
-101 33 382 0
-382 -59 -383 0
382 383 0
59 383 0
-101 -33 384 0
101 -384 0
33 -384 0
59 385 0
-59 -385 0
60 386 0
-60 -386 0
-386 -385 -387 0
386 387 0
385 387 0
387 384 388 0
-387 -388 0
-384 -388 0
33 389 0
-33 -389 0
101 390 0
-101 -390 0
-390 -389 -391 0
390 391 0
389 391 0
-60 -385 -392 0
60 392 0
385 392 0
392 391 393 0
-392 -393 0
-391 -393 0
393 388 394 0
-393 -394 0
-388 -394 0
-394 -383 -128 0
394 128 0
383 128 0
35 103 129 0
-35 -129 0
-103 -129 0
36 103 130 0
-36 -130 0
-103 -130 0
-104 -107 -108 -109 -110 -111 -112 -113 -114 131 0
104 -131 0
107 -131 0
108 -131 0
109 -131 0
110 -131 0
111 -131 0
112 -131 0
113 -131 0
114 -131 0
131 132 0
-131 -132 0
131 133 0
-131 -133 0
131 79 0
-131 -79 0
-132 -104 -134 0
132 104 -134 0
132 -104 134 0
-132 104 134 0
-132 -107 -135 0
132 107 -135 0
132 -107 135 0
-132 107 135 0
-132 -108 -136 0
132 108 -136 0
132 -108 136 0
-132 108 136 0
-109 -132 -343 0
109 132 -343 0
109 -132 343 0
-109 132 343 0
-343 -53 -344 0
343 344 0
53 344 0
-109 -132 345 0
109 -345 0
132 -345 0
53 346 0
-53 -346 0
54 347 0
-54 -347 0
-347 -346 -348 0
347 348 0
346 348 0
348 345 349 0
-348 -349 0
-345 -349 0
132 350 0
-132 -350 0
109 351 0
-109 -351 0
-351 -350 -352 0
351 352 0
350 352 0
-54 -346 -353 0
54 353 0
346 353 0
353 352 354 0
-353 -354 0
-352 -354 0
354 349 355 0
-354 -355 0
-349 -355 0
-355 -344 -137 0
355 137 0
344 137 0
-110 -132 -252 0
110 132 -252 0
110 -132 252 0
-110 132 252 0
-252 -39 -253 0
252 253 0
39 253 0
-110 -132 254 0
110 -254 0
132 -254 0
39 255 0
-39 -255 0
40 256 0
-40 -256 0
-256 -255 -257 0
256 257 0
255 257 0
257 254 258 0
-257 -258 0
-254 -258 0
132 259 0
-132 -259 0
110 260 0
-110 -260 0
-260 -259 -261 0
260 261 0
259 261 0
-40 -255 -262 0
40 262 0
255 262 0
262 261 263 0
-262 -263 0
-261 -263 0
263 258 264 0
-263 -264 0
-258 -264 0
-264 -253 -138 0
264 138 0
253 138 0
-132 -111 -139 0
132 111 -139 0
132 -111 139 0
-132 111 139 0
-133 -1 -434 0
133 1 -434 0
133 -1 434 0
-133 1 434 0
-434 -67 -435 0
434 435 0
67 435 0
-133 -1 436 0
133 -436 0
1 -436 0
67 437 0
-67 -437 0
68 438 0
-68 -438 0
-438 -437 -439 0
438 439 0
437 439 0
439 436 440 0
-439 -440 0
-436 -440 0
1 441 0
-1 -441 0
133 442 0
-133 -442 0
-442 -441 -443 0
442 443 0
441 443 0
-68 -437 -444 0
68 444 0
437 444 0
444 443 445 0
-444 -445 0
-443 -445 0
445 440 446 0
-445 -446 0
-440 -446 0
-446 -435 -140 0
446 140 0
435 140 0
-132 -112 -141 0
132 112 -141 0
132 -112 141 0
-132 112 141 0
-133 -4 -142 0
133 142 0
4 142 0
-132 -113 -143 0
132 113 -143 0
132 -113 143 0
-132 113 143 0
-133 -8 -144 0
133 144 0
8 144 0
-132 -114 -145 0
132 114 -145 0
132 -114 145 0
-132 114 145 0
-12 -133 -291 0
12 133 -291 0
12 -133 291 0
-12 133 291 0
-291 -45 -292 0
291 292 0
45 292 0
-12 -133 293 0
12 -293 0
133 -293 0
45 294 0
-45 -294 0
46 295 0
-46 -295 0
-295 -294 -296 0
295 296 0
294 296 0
296 293 297 0
-296 -297 0
-293 -297 0
133 298 0
-133 -298 0
12 299 0
-12 -299 0
-299 -298 -300 0
299 300 0
298 300 0
-46 -294 -301 0
46 301 0
294 301 0
301 300 302 0
-301 -302 0
-300 -302 0
302 297 303 0
-302 -303 0
-297 -303 0
-303 -292 -146 0
303 146 0
292 146 0
-133 -16 -147 0
133 147 0
16 147 0
-133 -20 -148 0
133 148 0
20 148 0
-133 -24 -149 0
133 149 0
24 149 0
-133 -28 -150 0
133 150 0
28 150 0
-133 -32 -151 0
133 151 0
32 151 0
-105 -134 -239 0
105 134 -239 0
105 -134 239 0
-105 134 239 0
-239 -37 -240 0
239 240 0
37 240 0
-105 -134 241 0
105 -241 0
134 -241 0
37 242 0
-37 -242 0
38 243 0
-38 -243 0
-243 -242 -244 0
243 244 0
242 244 0
244 241 245 0
-244 -245 0
-241 -245 0
134 246 0
-134 -246 0
105 247 0
-105 -247 0
-247 -246 -248 0
247 248 0
246 248 0
-38 -242 -249 0
38 249 0
242 249 0
249 248 250 0
-249 -250 0
-248 -250 0
250 245 251 0
-250 -251 0
-245 -251 0
-251 -240 -152 0
251 152 0
240 152 0
-134 -106 -153 0
134 153 0
106 153 0
-135 -115 -154 0
135 154 0
115 154 0
-136 -117 -155 0
136 155 0
117 155 0
-137 -119 -156 0
137 156 0
119 156 0
-138 -121 -157 0
138 157 0
121 157 0
-139 -123 -158 0
139 158 0
123 158 0
-141 -125 -159 0
141 159 0
125 159 0
-143 -127 -160 0
143 160 0
127 160 0
-145 -129 -161 0
145 161 0
129 161 0
-116 -135 -447 0
116 135 -447 0
116 -135 447 0
-116 135 447 0
-447 -69 -448 0
447 448 0
69 448 0
-116 -135 449 0
116 -449 0
135 -449 0
69 450 0
-69 -450 0
70 451 0
-70 -451 0
-451 -450 -452 0
451 452 0
450 452 0
452 449 453 0
-452 -453 0
-449 -453 0
135 454 0
-135 -454 0
116 455 0
-116 -455 0
-455 -454 -456 0
455 456 0
454 456 0
-70 -450 -457 0
70 457 0
450 457 0
457 456 458 0
-457 -458 0
-456 -458 0
458 453 459 0
-458 -459 0
-453 -459 0
-459 -448 -162 0
459 162 0
448 162 0
-136 -118 -163 0
136 163 0
118 163 0
-137 -120 -164 0
137 164 0
120 164 0
-138 -122 -165 0
138 165 0
122 165 0
-139 -124 -166 0
139 166 0
124 166 0
-126 -141 -304 0
126 141 -304 0
126 -141 304 0
-126 141 304 0
-304 -47 -305 0
304 305 0
47 305 0
-126 -141 306 0
126 -306 0
141 -306 0
47 307 0
-47 -307 0
48 308 0
-48 -308 0
-308 -307 -309 0
308 309 0
307 309 0
309 306 310 0
-309 -310 0
-306 -310 0
141 311 0
-141 -311 0
126 312 0
-126 -312 0
-312 -311 -313 0
312 313 0
311 313 0
-48 -307 -314 0
48 314 0
307 314 0
314 313 315 0
-314 -315 0
-313 -315 0
315 310 316 0
-315 -316 0
-310 -316 0
-316 -305 -167 0
316 167 0
305 167 0
-143 -128 -168 0
143 168 0
128 168 0
-145 -130 -169 0
145 169 0
130 169 0
-152 -154 -155 -156 -157 -158 -159 -160 -161 170 0
152 -170 0
154 -170 0
155 -170 0
156 -170 0
157 -170 0
158 -170 0
159 -170 0
160 -170 0
161 -170 0
153 171 0
-153 -171 0
162 172 0
-162 -172 0
163 173 0
-163 -173 0
164 174 0
-164 -174 0
165 175 0
-165 -175 0
166 176 0
-166 -176 0
167 177 0
-167 -177 0
168 178 0
-168 -178 0
169 179 0
-169 -179 0
170 180 0
-170 -180 0
170 181 0
-170 -181 0
170 80 0
-170 -80 0
-180 -152 -182 0
180 152 -182 0
180 -152 182 0
-180 152 182 0
-180 -154 -183 0
180 154 -183 0
180 -154 183 0
-180 154 183 0
-180 -155 -184 0
180 155 -184 0
180 -155 184 0
-180 155 184 0
-180 -156 -185 0
180 156 -185 0
180 -156 185 0
-180 156 185 0
-3 -181 -186 0
3 186 0
181 186 0
-180 -157 -187 0
180 157 -187 0
180 -157 187 0
-180 157 187 0
-181 -7 -188 0
181 188 0
7 188 0
-180 -158 -189 0
180 158 -189 0
180 -158 189 0
-180 158 189 0
-181 -11 -190 0
181 190 0
11 190 0
-180 -159 -191 0
180 159 -191 0
180 -159 191 0
-180 159 191 0
-181 -15 -192 0
181 192 0
15 192 0
-180 -160 -193 0
180 160 -193 0
180 -160 193 0
-180 160 193 0
-181 -19 -194 0
181 194 0
19 194 0
-161 -180 -278 0
161 180 -278 0
161 -180 278 0
-161 180 278 0
-278 -43 -279 0
278 279 0
43 279 0
-161 -180 280 0
161 -280 0
180 -280 0
43 281 0
-43 -281 0
44 282 0
-44 -282 0
-282 -281 -283 0
282 283 0
281 283 0
283 280 284 0
-283 -284 0
-280 -284 0
180 285 0
-180 -285 0
161 286 0
-161 -286 0
-286 -285 -287 0
286 287 0
285 287 0
-44 -281 -288 0
44 288 0
281 288 0
288 287 289 0
-288 -289 0
-287 -289 0
289 284 290 0
-289 -290 0
-284 -290 0
-290 -279 -195 0
290 195 0
279 195 0
-23 -181 -265 0
23 181 -265 0
23 -181 265 0
-23 181 265 0
-265 -41 -266 0
265 266 0
41 266 0
-23 -181 267 0
23 -267 0
181 -267 0
41 268 0
-41 -268 0
42 269 0
-42 -269 0
-269 -268 -270 0
269 270 0
268 270 0
270 267 271 0
-270 -271 0
-267 -271 0
181 272 0
-181 -272 0
23 273 0
-23 -273 0
-273 -272 -274 0
273 274 0
272 274 0
-42 -268 -275 0
42 275 0
268 275 0
275 274 276 0
-275 -276 0
-274 -276 0
276 271 277 0
-276 -277 0
-271 -277 0
-277 -266 -196 0
277 196 0
266 196 0
-27 -181 -408 0
27 181 -408 0
27 -181 408 0
-27 181 408 0
-408 -63 -409 0
408 409 0
63 409 0
-27 -181 410 0
27 -410 0
181 -410 0
63 411 0
-63 -411 0
64 412 0
-64 -412 0
-412 -411 -413 0
412 413 0
411 413 0
413 410 414 0
-413 -414 0
-410 -414 0
181 415 0
-181 -415 0
27 416 0
-27 -416 0
-416 -415 -417 0
416 417 0
415 417 0
-64 -411 -418 0
64 418 0
411 418 0
418 417 419 0
-418 -419 0
-417 -419 0
419 414 420 0
-419 -420 0
-414 -420 0
-420 -409 -197 0
420 197 0
409 197 0
-181 -31 -198 0
181 198 0
31 198 0
-181 -35 -199 0
181 199 0
35 199 0
-171 -182 -421 0
171 182 -421 0
171 -182 421 0
-171 182 421 0
-421 -65 -422 0
421 422 0
65 422 0
-171 -182 423 0
171 -423 0
182 -423 0
65 424 0
-65 -424 0
66 425 0
-66 -425 0
-425 -424 -426 0
425 426 0
424 426 0
426 423 427 0
-426 -427 0
-423 -427 0
182 428 0
-182 -428 0
171 429 0
-171 -429 0
-429 -428 -430 0
429 430 0
428 430 0
-66 -424 -431 0
66 431 0
424 431 0
431 430 432 0
-431 -432 0
-430 -432 0
432 427 433 0
-432 -433 0
-427 -433 0
-433 -422 -200 0
433 200 0
422 200 0
-183 -172 -201 0
183 201 0
172 201 0
-184 -173 -202 0
184 202 0
173 202 0
-174 -185 -473 0
174 185 -473 0
174 -185 473 0
-174 185 473 0
-473 -73 -474 0
473 474 0
73 474 0
-174 -185 475 0
174 -475 0
185 -475 0
73 476 0
-73 -476 0
74 477 0
-74 -477 0
-477 -476 -478 0
477 478 0
476 478 0
478 475 479 0
-478 -479 0
-475 -479 0
185 480 0
-185 -480 0
174 481 0
-174 -481 0
-481 -480 -482 0
481 482 0
480 482 0
-74 -476 -483 0
74 483 0
476 483 0
483 482 484 0
-483 -484 0
-482 -484 0
484 479 485 0
-484 -485 0
-479 -485 0
-485 -474 -203 0
485 203 0
474 203 0
-187 -175 -204 0
187 204 0
175 204 0
-189 -176 -205 0
189 205 0
176 205 0
-191 -177 -206 0
191 206 0
177 206 0
-193 -178 -207 0
193 207 0
178 207 0
-195 -179 -208 0
195 208 0
179 208 0
-200 -201 -202 -203 -204 -205 -206 -207 -208 209 0
200 -209 0
201 -209 0
202 -209 0
203 -209 0
204 -209 0
205 -209 0
206 -209 0
207 -209 0
208 -209 0
209 210 0
-209 -210 0
209 81 0
-209 -81 0
-5 -210 -211 0
5 211 0
210 211 0
-9 -210 -330 0
9 210 -330 0
9 -210 330 0
-9 210 330 0
-330 -51 -331 0
330 331 0
51 331 0
-9 -210 332 0
9 -332 0
210 -332 0
51 333 0
-51 -333 0
52 334 0
-52 -334 0
-334 -333 -335 0
334 335 0
333 335 0
335 332 336 0
-335 -336 0
-332 -336 0
210 337 0
-210 -337 0
9 338 0
-9 -338 0
-338 -337 -339 0
338 339 0
337 339 0
-52 -333 -340 0
52 340 0
333 340 0
340 339 341 0
-340 -341 0
-339 -341 0
341 336 342 0
-341 -342 0
-336 -342 0
-342 -331 -212 0
342 212 0
331 212 0
-210 -13 -213 0
210 213 0
13 213 0
-17 -210 -317 0
17 210 -317 0
17 -210 317 0
-17 210 317 0
-317 -49 -318 0
317 318 0
49 318 0
-17 -210 319 0
17 -319 0
210 -319 0
49 320 0
-49 -320 0
50 321 0
-50 -321 0
-321 -320 -322 0
321 322 0
320 322 0
322 319 323 0
-322 -323 0
-319 -323 0
210 324 0
-210 -324 0
17 325 0
-17 -325 0
-325 -324 -326 0
325 326 0
324 326 0
-50 -320 -327 0
50 327 0
320 327 0
327 326 328 0
-327 -328 0
-326 -328 0
328 323 329 0
-328 -329 0
-323 -329 0
-329 -318 -214 0
329 214 0
318 214 0
-210 -21 -215 0
210 215 0
21 215 0
-25 -210 -486 0
25 210 -486 0
25 -210 486 0
-25 210 486 0
-486 -75 -487 0
486 487 0
75 487 0
-25 -210 488 0
25 -488 0
210 -488 0
75 489 0
-75 -489 0
76 490 0
-76 -490 0
-490 -489 -491 0
490 491 0
489 491 0
491 488 492 0
-491 -492 0
-488 -492 0
210 493 0
-210 -493 0
25 494 0
-25 -494 0
-494 -493 -495 0
494 495 0
493 495 0
-76 -489 -496 0
76 496 0
489 496 0
496 495 497 0
-496 -497 0
-495 -497 0
497 492 498 0
-497 -498 0
-492 -498 0
-498 -487 -216 0
498 216 0
487 216 0
-210 -29 -217 0
210 217 0
29 217 0
-210 -33 -218 0
210 218 0
33 218 0
-210 -36 -219 0
210 219 0
36 219 0
-2 -140 -186 -211 -220 0
2 220 0
140 220 0
186 220 0
211 220 0
-142 -188 -212 -6 -221 0
142 221 0
188 221 0
212 221 0
6 221 0
-144 -190 -213 -10 -222 0
144 222 0
190 222 0
213 222 0
10 222 0
-146 -192 -214 -14 -223 0
146 223 0
192 223 0
214 223 0
14 223 0
-147 -194 -215 -18 -224 0
147 224 0
194 224 0
215 224 0
18 224 0
-148 -196 -216 -22 -225 0
148 225 0
196 225 0
216 225 0
22 225 0
-149 -197 -217 -26 -226 0
149 226 0
197 226 0
217 226 0
26 226 0
-150 -198 -218 -30 -227 0
150 227 0
198 227 0
218 227 0
30 227 0
-151 -199 -219 -34 -228 0
151 228 0
199 228 0
219 228 0
34 228 0
220 229 0
-220 -229 0
-221 -222 -223 -224 -225 -226 -227 -228 230 0
221 -230 0
222 -230 0
223 -230 0
224 -230 0
225 -230 0
226 -230 0
227 -230 0
228 -230 0
223 231 0
-223 -231 0
225 232 0
-225 -232 0
226 233 0
-226 -233 0
227 234 0
-227 -234 0
229 230 82 0
-229 -82 0
-230 -82 0
-222 -231 -235 0
222 235 0
231 235 0
-222 -223 -232 -224 -236 0
222 236 0
223 236 0
232 236 0
224 236 0
-224 -223 -233 -237 0
224 237 0
223 237 0
233 237 0
-222 -223 -226 -234 -238 0
222 238 0
223 238 0
226 238 0
234 238 0
-221 -222 -235 -224 -83 0
221 83 0
222 83 0
235 83 0
224 83 0
-221 -222 -236 -237 -84 0
221 84 0
222 84 0
236 84 0
237 84 0
-221 -235 -236 -238 -85 0
221 85 0
235 85 0
236 85 0
238 85 0
c The second camouflage circuit:
512 597 0
-512 -597 0
513 598 0
-513 -598 0
515 599 0
-515 -599 0
517 600 0
-517 -600 0
519 601 0
-519 -601 0
521 602 0
-521 -602 0
523 603 0
-523 -603 0
525 604 0
-525 -604 0
527 605 0
-527 -605 0
529 606 0
-529 -606 0
531 607 0
-531 -607 0
533 608 0
-533 -608 0
535 609 0
-535 -609 0
537 610 0
-537 -610 0
539 611 0
-539 -611 0
541 612 0
-541 -612 0
543 613 0
-543 -613 0
545 614 0
-545 -614 0
-597 -513 -615 0
597 615 0
513 615 0
514 598 616 0
-514 -616 0
-598 -616 0
516 598 617 0
-516 -617 0
-598 -617 0
-599 -517 -618 0
599 618 0
517 618 0
-521 -601 -1010 0
521 601 -1010 0
521 -601 1010 0
-521 601 1010 0
-1010 -588 -1011 0
1010 1011 0
588 1011 0
-521 -601 1012 0
521 -1012 0
601 -1012 0
588 1013 0
-588 -1013 0
589 1014 0
-589 -1014 0
-1014 -1013 -1015 0
1014 1015 0
1013 1015 0
1015 1012 1016 0
-1015 -1016 0
-1012 -1016 0
601 1017 0
-601 -1017 0
521 1018 0
-521 -1018 0
-1018 -1017 -1019 0
1018 1019 0
1017 1019 0
-589 -1013 -1020 0
589 1020 0
1013 1020 0
1020 1019 1021 0
-1020 -1021 0
-1019 -1021 0
1021 1016 1022 0
-1021 -1022 0
-1016 -1022 0
-1022 -1011 -619 0
1022 619 0
1011 619 0
-603 -525 -620 0
603 620 0
525 620 0
-605 -529 -621 0
605 621 0
529 621 0
-533 -607 -880 0
533 607 -880 0
533 -607 880 0
-533 607 880 0
-880 -568 -881 0
880 881 0
568 881 0
-533 -607 882 0
533 -882 0
607 -882 0
568 883 0
-568 -883 0
569 884 0
-569 -884 0
-884 -883 -885 0
884 885 0
883 885 0
885 882 886 0
-885 -886 0
-882 -886 0
607 887 0
-607 -887 0
533 888 0
-533 -888 0
-888 -887 -889 0
888 889 0
887 889 0
-569 -883 -890 0
569 890 0
883 890 0
890 889 891 0
-890 -891 0
-889 -891 0
891 886 892 0
-891 -892 0
-886 -892 0
-892 -881 -622 0
892 622 0
881 622 0
-537 -609 -971 0
537 609 -971 0
537 -609 971 0
-537 609 971 0
-971 -582 -972 0
971 972 0
582 972 0
-537 -609 973 0
537 -973 0
609 -973 0
582 974 0
-582 -974 0
583 975 0
-583 -975 0
-975 -974 -976 0
975 976 0
974 976 0
976 973 977 0
-976 -977 0
-973 -977 0
609 978 0
-609 -978 0
537 979 0
-537 -979 0
-979 -978 -980 0
979 980 0
978 980 0
-583 -974 -981 0
583 981 0
974 981 0
981 980 982 0
-981 -982 0
-980 -982 0
982 977 983 0
-982 -983 0
-977 -983 0
-983 -972 -623 0
983 623 0
972 623 0
-611 -541 -624 0
611 624 0
541 624 0
-613 -545 -625 0
613 625 0
545 625 0
518 600 626 0
-518 -626 0
-600 -626 0
520 600 627 0
-520 -627 0
-600 -627 0
522 602 628 0
-522 -628 0
-602 -628 0
524 602 629 0
-524 -629 0
-602 -629 0
-604 -526 -867 0
604 526 -867 0
604 -526 867 0
-604 526 867 0
-867 -566 -868 0
867 868 0
566 868 0
-604 -526 869 0
604 -869 0
526 -869 0
566 870 0
-566 -870 0
567 871 0
-567 -871 0
-871 -870 -872 0
871 872 0
870 872 0
872 869 873 0
-872 -873 0
-869 -873 0
526 874 0
-526 -874 0
604 875 0
-604 -875 0
-875 -874 -876 0
875 876 0
874 876 0
-567 -870 -877 0
567 877 0
870 877 0
877 876 878 0
-877 -878 0
-876 -878 0
878 873 879 0
-878 -879 0
-873 -879 0
-879 -868 -630 0
879 630 0
868 630 0
528 604 631 0
-528 -631 0
-604 -631 0
-606 -530 -906 0
606 530 -906 0
606 -530 906 0
-606 530 906 0
-906 -572 -907 0
906 907 0
572 907 0
-606 -530 908 0
606 -908 0
530 -908 0
572 909 0
-572 -909 0
573 910 0
-573 -910 0
-910 -909 -911 0
910 911 0
909 911 0
911 908 912 0
-911 -912 0
-908 -912 0
530 913 0
-530 -913 0
606 914 0
-606 -914 0
-914 -913 -915 0
914 915 0
913 915 0
-573 -909 -916 0
573 916 0
909 916 0
916 915 917 0
-916 -917 0
-915 -917 0
917 912 918 0
-917 -918 0
-912 -918 0
-918 -907 -632 0
918 632 0
907 632 0
532 606 633 0
-532 -633 0
-606 -633 0
534 608 634 0
-534 -634 0
-608 -634 0
536 608 635 0
-536 -635 0
-608 -635 0
538 610 636 0
-538 -636 0
-610 -636 0
540 610 637 0
-540 -637 0
-610 -637 0
542 612 638 0
-542 -638 0
-612 -638 0
-612 -544 -893 0
612 544 -893 0
612 -544 893 0
-612 544 893 0
-893 -570 -894 0
893 894 0
570 894 0
-612 -544 895 0
612 -895 0
544 -895 0
570 896 0
-570 -896 0
571 897 0
-571 -897 0
-897 -896 -898 0
897 898 0
896 898 0
898 895 899 0
-898 -899 0
-895 -899 0
544 900 0
-544 -900 0
612 901 0
-612 -901 0
-901 -900 -902 0
901 902 0
900 902 0
-571 -896 -903 0
571 903 0
896 903 0
903 902 904 0
-903 -904 0
-902 -904 0
904 899 905 0
-904 -905 0
-899 -905 0
-905 -894 -639 0
905 639 0
894 639 0
546 614 640 0
-546 -640 0
-614 -640 0
547 614 641 0
-547 -641 0
-614 -641 0
-615 -618 -619 -620 -621 -622 -623 -624 -625 642 0
615 -642 0
618 -642 0
619 -642 0
620 -642 0
621 -642 0
622 -642 0
623 -642 0
624 -642 0
625 -642 0
642 643 0
-642 -643 0
642 644 0
-642 -644 0
642 590 0
-642 -590 0
-643 -615 -645 0
643 615 -645 0
643 -615 645 0
-643 615 645 0
-643 -618 -646 0
643 618 -646 0
643 -618 646 0
-643 618 646 0
-643 -619 -647 0
643 619 -647 0
643 -619 647 0
-643 619 647 0
-620 -643 -854 0
620 643 -854 0
620 -643 854 0
-620 643 854 0
-854 -564 -855 0
854 855 0
564 855 0
-620 -643 856 0
620 -856 0
643 -856 0
564 857 0
-564 -857 0
565 858 0
-565 -858 0
-858 -857 -859 0
858 859 0
857 859 0
859 856 860 0
-859 -860 0
-856 -860 0
643 861 0
-643 -861 0
620 862 0
-620 -862 0
-862 -861 -863 0
862 863 0
861 863 0
-565 -857 -864 0
565 864 0
857 864 0
864 863 865 0
-864 -865 0
-863 -865 0
865 860 866 0
-865 -866 0
-860 -866 0
-866 -855 -648 0
866 648 0
855 648 0
-621 -643 -763 0
621 643 -763 0
621 -643 763 0
-621 643 763 0
-763 -550 -764 0
763 764 0
550 764 0
-621 -643 765 0
621 -765 0
643 -765 0
550 766 0
-550 -766 0
551 767 0
-551 -767 0
-767 -766 -768 0
767 768 0
766 768 0
768 765 769 0
-768 -769 0
-765 -769 0
643 770 0
-643 -770 0
621 771 0
-621 -771 0
-771 -770 -772 0
771 772 0
770 772 0
-551 -766 -773 0
551 773 0
766 773 0
773 772 774 0
-773 -774 0
-772 -774 0
774 769 775 0
-774 -775 0
-769 -775 0
-775 -764 -649 0
775 649 0
764 649 0
-643 -622 -650 0
643 622 -650 0
643 -622 650 0
-643 622 650 0
-644 -512 -945 0
644 512 -945 0
644 -512 945 0
-644 512 945 0
-945 -578 -946 0
945 946 0
578 946 0
-644 -512 947 0
644 -947 0
512 -947 0
578 948 0
-578 -948 0
579 949 0
-579 -949 0
-949 -948 -950 0
949 950 0
948 950 0
950 947 951 0
-950 -951 0
-947 -951 0
512 952 0
-512 -952 0
644 953 0
-644 -953 0
-953 -952 -954 0
953 954 0
952 954 0
-579 -948 -955 0
579 955 0
948 955 0
955 954 956 0
-955 -956 0
-954 -956 0
956 951 957 0
-956 -957 0
-951 -957 0
-957 -946 -651 0
957 651 0
946 651 0
-643 -623 -652 0
643 623 -652 0
643 -623 652 0
-643 623 652 0
-644 -515 -653 0
644 653 0
515 653 0
-643 -624 -654 0
643 624 -654 0
643 -624 654 0
-643 624 654 0
-644 -519 -655 0
644 655 0
519 655 0
-643 -625 -656 0
643 625 -656 0
643 -625 656 0
-643 625 656 0
-523 -644 -802 0
523 644 -802 0
523 -644 802 0
-523 644 802 0
-802 -556 -803 0
802 803 0
556 803 0
-523 -644 804 0
523 -804 0
644 -804 0
556 805 0
-556 -805 0
557 806 0
-557 -806 0
-806 -805 -807 0
806 807 0
805 807 0
807 804 808 0
-807 -808 0
-804 -808 0
644 809 0
-644 -809 0
523 810 0
-523 -810 0
-810 -809 -811 0
810 811 0
809 811 0
-557 -805 -812 0
557 812 0
805 812 0
812 811 813 0
-812 -813 0
-811 -813 0
813 808 814 0
-813 -814 0
-808 -814 0
-814 -803 -657 0
814 657 0
803 657 0
-644 -527 -658 0
644 658 0
527 658 0
-644 -531 -659 0
644 659 0
531 659 0
-644 -535 -660 0
644 660 0
535 660 0
-644 -539 -661 0
644 661 0
539 661 0
-644 -543 -662 0
644 662 0
543 662 0
-616 -645 -750 0
616 645 -750 0
616 -645 750 0
-616 645 750 0
-750 -548 -751 0
750 751 0
548 751 0
-616 -645 752 0
616 -752 0
645 -752 0
548 753 0
-548 -753 0
549 754 0
-549 -754 0
-754 -753 -755 0
754 755 0
753 755 0
755 752 756 0
-755 -756 0
-752 -756 0
645 757 0
-645 -757 0
616 758 0
-616 -758 0
-758 -757 -759 0
758 759 0
757 759 0
-549 -753 -760 0
549 760 0
753 760 0
760 759 761 0
-760 -761 0
-759 -761 0
761 756 762 0
-761 -762 0
-756 -762 0
-762 -751 -663 0
762 663 0
751 663 0
-645 -617 -664 0
645 664 0
617 664 0
-646 -626 -665 0
646 665 0
626 665 0
-647 -628 -666 0
647 666 0
628 666 0
-648 -630 -667 0
648 667 0
630 667 0
-649 -632 -668 0
649 668 0
632 668 0
-650 -634 -669 0
650 669 0
634 669 0
-652 -636 -670 0
652 670 0
636 670 0
-654 -638 -671 0
654 671 0
638 671 0
-656 -640 -672 0
656 672 0
640 672 0
-627 -646 -958 0
627 646 -958 0
627 -646 958 0
-627 646 958 0
-958 -580 -959 0
958 959 0
580 959 0
-627 -646 960 0
627 -960 0
646 -960 0
580 961 0
-580 -961 0
581 962 0
-581 -962 0
-962 -961 -963 0
962 963 0
961 963 0
963 960 964 0
-963 -964 0
-960 -964 0
646 965 0
-646 -965 0
627 966 0
-627 -966 0
-966 -965 -967 0
966 967 0
965 967 0
-581 -961 -968 0
581 968 0
961 968 0
968 967 969 0
-968 -969 0
-967 -969 0
969 964 970 0
-969 -970 0
-964 -970 0
-970 -959 -673 0
970 673 0
959 673 0
-647 -629 -674 0
647 674 0
629 674 0
-648 -631 -675 0
648 675 0
631 675 0
-649 -633 -676 0
649 676 0
633 676 0
-650 -635 -677 0
650 677 0
635 677 0
-637 -652 -815 0
637 652 -815 0
637 -652 815 0
-637 652 815 0
-815 -558 -816 0
815 816 0
558 816 0
-637 -652 817 0
637 -817 0
652 -817 0
558 818 0
-558 -818 0
559 819 0
-559 -819 0
-819 -818 -820 0
819 820 0
818 820 0
820 817 821 0
-820 -821 0
-817 -821 0
652 822 0
-652 -822 0
637 823 0
-637 -823 0
-823 -822 -824 0
823 824 0
822 824 0
-559 -818 -825 0
559 825 0
818 825 0
825 824 826 0
-825 -826 0
-824 -826 0
826 821 827 0
-826 -827 0
-821 -827 0
-827 -816 -678 0
827 678 0
816 678 0
-654 -639 -679 0
654 679 0
639 679 0
-656 -641 -680 0
656 680 0
641 680 0
-663 -665 -666 -667 -668 -669 -670 -671 -672 681 0
663 -681 0
665 -681 0
666 -681 0
667 -681 0
668 -681 0
669 -681 0
670 -681 0
671 -681 0
672 -681 0
664 682 0
-664 -682 0
673 683 0
-673 -683 0
674 684 0
-674 -684 0
675 685 0
-675 -685 0
676 686 0
-676 -686 0
677 687 0
-677 -687 0
678 688 0
-678 -688 0
679 689 0
-679 -689 0
680 690 0
-680 -690 0
681 691 0
-681 -691 0
681 692 0
-681 -692 0
681 591 0
-681 -591 0
-691 -663 -693 0
691 663 -693 0
691 -663 693 0
-691 663 693 0
-691 -665 -694 0
691 665 -694 0
691 -665 694 0
-691 665 694 0
-691 -666 -695 0
691 666 -695 0
691 -666 695 0
-691 666 695 0
-691 -667 -696 0
691 667 -696 0
691 -667 696 0
-691 667 696 0
-514 -692 -697 0
514 697 0
692 697 0
-691 -668 -698 0
691 668 -698 0
691 -668 698 0
-691 668 698 0
-692 -518 -699 0
692 699 0
518 699 0
-691 -669 -700 0
691 669 -700 0
691 -669 700 0
-691 669 700 0
-692 -522 -701 0
692 701 0
522 701 0
-691 -670 -702 0
691 670 -702 0
691 -670 702 0
-691 670 702 0
-692 -526 -703 0
692 703 0
526 703 0
-691 -671 -704 0
691 671 -704 0
691 -671 704 0
-691 671 704 0
-692 -530 -705 0
692 705 0
530 705 0
-672 -691 -789 0
672 691 -789 0
672 -691 789 0
-672 691 789 0
-789 -554 -790 0
789 790 0
554 790 0
-672 -691 791 0
672 -791 0
691 -791 0
554 792 0
-554 -792 0
555 793 0
-555 -793 0
-793 -792 -794 0
793 794 0
792 794 0
794 791 795 0
-794 -795 0
-791 -795 0
691 796 0
-691 -796 0
672 797 0
-672 -797 0
-797 -796 -798 0
797 798 0
796 798 0
-555 -792 -799 0
555 799 0
792 799 0
799 798 800 0
-799 -800 0
-798 -800 0
800 795 801 0
-800 -801 0
-795 -801 0
-801 -790 -706 0
801 706 0
790 706 0
-534 -692 -776 0
534 692 -776 0
534 -692 776 0
-534 692 776 0
-776 -552 -777 0
776 777 0
552 777 0
-534 -692 778 0
534 -778 0
692 -778 0
552 779 0
-552 -779 0
553 780 0
-553 -780 0
-780 -779 -781 0
780 781 0
779 781 0
781 778 782 0
-781 -782 0
-778 -782 0
692 783 0
-692 -783 0
534 784 0
-534 -784 0
-784 -783 -785 0
784 785 0
783 785 0
-553 -779 -786 0
553 786 0
779 786 0
786 785 787 0
-786 -787 0
-785 -787 0
787 782 788 0
-787 -788 0
-782 -788 0
-788 -777 -707 0
788 707 0
777 707 0
-538 -692 -919 0
538 692 -919 0
538 -692 919 0
-538 692 919 0
-919 -574 -920 0
919 920 0
574 920 0
-538 -692 921 0
538 -921 0
692 -921 0
574 922 0
-574 -922 0
575 923 0
-575 -923 0
-923 -922 -924 0
923 924 0
922 924 0
924 921 925 0
-924 -925 0
-921 -925 0
692 926 0
-692 -926 0
538 927 0
-538 -927 0
-927 -926 -928 0
927 928 0
926 928 0
-575 -922 -929 0
575 929 0
922 929 0
929 928 930 0
-929 -930 0
-928 -930 0
930 925 931 0
-930 -931 0
-925 -931 0
-931 -920 -708 0
931 708 0
920 708 0
-692 -542 -709 0
692 709 0
542 709 0
-692 -546 -710 0
692 710 0
546 710 0
-682 -693 -932 0
682 693 -932 0
682 -693 932 0
-682 693 932 0
-932 -576 -933 0
932 933 0
576 933 0
-682 -693 934 0
682 -934 0
693 -934 0
576 935 0
-576 -935 0
577 936 0
-577 -936 0
-936 -935 -937 0
936 937 0
935 937 0
937 934 938 0
-937 -938 0
-934 -938 0
693 939 0
-693 -939 0
682 940 0
-682 -940 0
-940 -939 -941 0
940 941 0
939 941 0
-577 -935 -942 0
577 942 0
935 942 0
942 941 943 0
-942 -943 0
-941 -943 0
943 938 944 0
-943 -944 0
-938 -944 0
-944 -933 -711 0
944 711 0
933 711 0
-694 -683 -712 0
694 712 0
683 712 0
-695 -684 -713 0
695 713 0
684 713 0
-685 -696 -984 0
685 696 -984 0
685 -696 984 0
-685 696 984 0
-984 -584 -985 0
984 985 0
584 985 0
-685 -696 986 0
685 -986 0
696 -986 0
584 987 0
-584 -987 0
585 988 0
-585 -988 0
-988 -987 -989 0
988 989 0
987 989 0
989 986 990 0
-989 -990 0
-986 -990 0
696 991 0
-696 -991 0
685 992 0
-685 -992 0
-992 -991 -993 0
992 993 0
991 993 0
-585 -987 -994 0
585 994 0
987 994 0
994 993 995 0
-994 -995 0
-993 -995 0
995 990 996 0
-995 -996 0
-990 -996 0
-996 -985 -714 0
996 714 0
985 714 0
-698 -686 -715 0
698 715 0
686 715 0
-700 -687 -716 0
700 716 0
687 716 0
-702 -688 -717 0
702 717 0
688 717 0
-704 -689 -718 0
704 718 0
689 718 0
-706 -690 -719 0
706 719 0
690 719 0
-711 -712 -713 -714 -715 -716 -717 -718 -719 720 0
711 -720 0
712 -720 0
713 -720 0
714 -720 0
715 -720 0
716 -720 0
717 -720 0
718 -720 0
719 -720 0
720 721 0
-720 -721 0
720 592 0
-720 -592 0
-516 -721 -722 0
516 722 0
721 722 0
-520 -721 -841 0
520 721 -841 0
520 -721 841 0
-520 721 841 0
-841 -562 -842 0
841 842 0
562 842 0
-520 -721 843 0
520 -843 0
721 -843 0
562 844 0
-562 -844 0
563 845 0
-563 -845 0
-845 -844 -846 0
845 846 0
844 846 0
846 843 847 0
-846 -847 0
-843 -847 0
721 848 0
-721 -848 0
520 849 0
-520 -849 0
-849 -848 -850 0
849 850 0
848 850 0
-563 -844 -851 0
563 851 0
844 851 0
851 850 852 0
-851 -852 0
-850 -852 0
852 847 853 0
-852 -853 0
-847 -853 0
-853 -842 -723 0
853 723 0
842 723 0
-721 -524 -724 0
721 724 0
524 724 0
-528 -721 -828 0
528 721 -828 0
528 -721 828 0
-528 721 828 0
-828 -560 -829 0
828 829 0
560 829 0
-528 -721 830 0
528 -830 0
721 -830 0
560 831 0
-560 -831 0
561 832 0
-561 -832 0
-832 -831 -833 0
832 833 0
831 833 0
833 830 834 0
-833 -834 0
-830 -834 0
721 835 0
-721 -835 0
528 836 0
-528 -836 0
-836 -835 -837 0
836 837 0
835 837 0
-561 -831 -838 0
561 838 0
831 838 0
838 837 839 0
-838 -839 0
-837 -839 0
839 834 840 0
-839 -840 0
-834 -840 0
-840 -829 -725 0
840 725 0
829 725 0
-721 -532 -726 0
721 726 0
532 726 0
-536 -721 -997 0
536 721 -997 0
536 -721 997 0
-536 721 997 0
-997 -586 -998 0
997 998 0
586 998 0
-536 -721 999 0
536 -999 0
721 -999 0
586 1000 0
-586 -1000 0
587 1001 0
-587 -1001 0
-1001 -1000 -1002 0
1001 1002 0
1000 1002 0
1002 999 1003 0
-1002 -1003 0
-999 -1003 0
721 1004 0
-721 -1004 0
536 1005 0
-536 -1005 0
-1005 -1004 -1006 0
1005 1006 0
1004 1006 0
-587 -1000 -1007 0
587 1007 0
1000 1007 0
1007 1006 1008 0
-1007 -1008 0
-1006 -1008 0
1008 1003 1009 0
-1008 -1009 0
-1003 -1009 0
-1009 -998 -727 0
1009 727 0
998 727 0
-721 -540 -728 0
721 728 0
540 728 0
-721 -544 -729 0
721 729 0
544 729 0
-721 -547 -730 0
721 730 0
547 730 0
-513 -651 -697 -722 -731 0
513 731 0
651 731 0
697 731 0
722 731 0
-653 -699 -723 -517 -732 0
653 732 0
699 732 0
723 732 0
517 732 0
-655 -701 -724 -521 -733 0
655 733 0
701 733 0
724 733 0
521 733 0
-657 -703 -725 -525 -734 0
657 734 0
703 734 0
725 734 0
525 734 0
-658 -705 -726 -529 -735 0
658 735 0
705 735 0
726 735 0
529 735 0
-659 -707 -727 -533 -736 0
659 736 0
707 736 0
727 736 0
533 736 0
-660 -708 -728 -537 -737 0
660 737 0
708 737 0
728 737 0
537 737 0
-661 -709 -729 -541 -738 0
661 738 0
709 738 0
729 738 0
541 738 0
-662 -710 -730 -545 -739 0
662 739 0
710 739 0
730 739 0
545 739 0
731 740 0
-731 -740 0
-732 -733 -734 -735 -736 -737 -738 -739 741 0
732 -741 0
733 -741 0
734 -741 0
735 -741 0
736 -741 0
737 -741 0
738 -741 0
739 -741 0
734 742 0
-734 -742 0
736 743 0
-736 -743 0
737 744 0
-737 -744 0
738 745 0
-738 -745 0
740 741 593 0
-740 -593 0
-741 -593 0
-733 -742 -746 0
733 746 0
742 746 0
-733 -734 -743 -735 -747 0
733 747 0
734 747 0
743 747 0
735 747 0
-735 -734 -744 -748 0
735 748 0
734 748 0
744 748 0
-733 -734 -737 -745 -749 0
733 749 0
734 749 0
737 749 0
745 749 0
-732 -733 -746 -735 -594 0
732 594 0
733 594 0
746 594 0
735 594 0
-732 -733 -747 -748 -595 0
732 595 0
733 595 0
747 595 0
748 595 0
-732 -746 -747 -749 -596 0
732 596 0
746 596 0
747 596 0
749 596 0
c Force PIs of 2 ckts to be the same:
1 -512 0
-1 512 0
2 -513 0
-2 513 0
3 -514 0
-3 514 0
4 -515 0
-4 515 0
5 -516 0
-5 516 0
6 -517 0
-6 517 0
7 -518 0
-7 518 0
8 -519 0
-8 519 0
9 -520 0
-9 520 0
10 -521 0
-10 521 0
11 -522 0
-11 522 0
12 -523 0
-12 523 0
13 -524 0
-13 524 0
14 -525 0
-14 525 0
15 -526 0
-15 526 0
16 -527 0
-16 527 0
17 -528 0
-17 528 0
18 -529 0
-18 529 0
19 -530 0
-19 530 0
20 -531 0
-20 531 0
21 -532 0
-21 532 0
22 -533 0
-22 533 0
23 -534 0
-23 534 0
24 -535 0
-24 535 0
25 -536 0
-25 536 0
26 -537 0
-26 537 0
27 -538 0
-27 538 0
28 -539 0
-28 539 0
29 -540 0
-29 540 0
30 -541 0
-30 541 0
31 -542 0
-31 542 0
32 -543 0
-32 543 0
33 -544 0
-33 544 0
34 -545 0
-34 545 0
35 -546 0
-35 546 0
36 -547 0
-36 547 0
c XOR outputs of 2 ckts:
-79 -590 -1023 0
79 590 -1023 0
79 -590 1023 0
-79 590 1023 0
-80 -591 -1024 0
80 591 -1024 0
80 -591 1024 0
-80 591 1024 0
-81 -592 -1025 0
81 592 -1025 0
81 -592 1025 0
-81 592 1025 0
-82 -593 -1026 0
82 593 -1026 0
82 -593 1026 0
-82 593 1026 0
-83 -594 -1027 0
83 594 -1027 0
83 -594 1027 0
-83 594 1027 0
-84 -595 -1028 0
84 595 -1028 0
84 -595 1028 0
-84 595 1028 0
-85 -596 -1029 0
85 596 -1029 0
85 -596 1029 0
-85 596 1029 0
c The last OR gate of the miter:
1023 1024 1025 1026 1027 1028 1029 -1030 0
-1023 1030 0
-1024 1030 0
-1025 1030 0
-1026 1030 0
-1027 1030 0
-1028 1030 0
-1029 1030 0
1030 0
c The CONST constrainsc this is forbidden constrains
-37 -38  0
-39 -40  0
-41 -42  0
-43 -44  0
-45 -46  0
-47 -48  0
-49 -50  0
-51 -52  0
-53 -54  0
-55 -56  0
-57 -58  0
-59 -60  0
-61 -62  0
-63 -64  0
-65 -66  0
-67 -68  0
-69 -70  0
-71 -72  0
-73 -74  0
-75 -76  0
-77 -78  0
